s td 11 20 30
b 1 1 2 3 4 5 6 8 10 11 15 16 17 19 20 21 25 26 28 29 30
b 2 1 2 3 4 6 7 8 10 11 15 16 17 19 20 21 25 29 30
b 3 1 3 4 6 7 8 10 13 17 19 30
b 4 2 6 7 10 11 14 15 16 19 21 25
b 5 1 3 4 5 6 8 9 10 11 15 16 17 19 20 21 25 26 28 29 30
b 6 1 3 4 5 6 8 9 10 11 15 16 17 18 20 21 25 26 28 29 30
b 7 1 3 4 5 6 8 9 10 11 15 16 17 18 20 21 24 25 26 28 29
b 8 1 3 4 8 9 11 12 15 16 18 20 21 24 25 26 29
b 9 1 8 9 11 12 16 18 24 26 27
b 10 4 5 9 10 11 15 17 18 22 24 26 28 29
b 11 1 3 4 6 8 9 10 17 18 21 23 24 25 26
1 2
1 5
2 3
2 4
5 6
6 7
7 8
7 10
7 11
8 9
